WARNING: for repeatability, setting FPU to use double precision
============================[ Problem Statistics ]=============================
|                                                                             |
|  Number of variables:          4839                                         |
|  Number of clauses:           45400                                         |
|  Parse time:                   0.01 s                                       |
|                                                                             |
============================[ Search Statistics ]==============================
| Conflicts |          ORIGINAL         |          LEARNT          | Progress |
|           |    Vars  Clauses Literals |    Limit  Clauses Lit/Cl |          |
===============================================================================
|       100 |    3806    45400   110762 |    16646       74      6 | 21.348 % |
|       250 |    2955    30803    76595 |    18311      102     17 | 38.934 % |
===============================================================================
restarts              : 3
conflicts             : 315            (15750 /sec)
decisions             : 5825           (0.00 % random) (291250 /sec)
propagations          : 136687         (6834350 /sec)
conflict literals     : 2767           (29.25 % deleted)
Memory used           : 7.00 MB
CPU time              : 0.02 s

UNSATISFIABLE
